
Gurobi 8.1.1 (mac64, Python) logging started Wed Mar 11 12:33:45 2020

Academic license - for non-commercial use only

Gurobi 8.1.1 (mac64, Python) logging started Wed Mar 11 12:37:01 2020

Academic license - for non-commercial use only

Gurobi 8.1.1 (mac64, Python) logging started Wed Mar 11 12:37:38 2020

Academic license - for non-commercial use only

Gurobi 8.1.1 (mac64, Python) logging started Wed Mar 11 12:52:53 2020

Academic license - for non-commercial use only

Gurobi 8.1.1 (mac64, Python) logging started Wed Mar 11 12:53:43 2020

Academic license - for non-commercial use only

Gurobi 8.1.1 (mac64, Python) logging started Wed Mar 11 12:54:22 2020

Academic license - for non-commercial use only

Gurobi 8.1.1 (mac64, Python) logging started Wed Mar 11 12:56:04 2020

Academic license - for non-commercial use only

Gurobi 8.1.1 (mac64, Python) logging started Wed Mar 11 12:59:34 2020

Academic license - for non-commercial use only

Gurobi 8.1.1 (mac64, Python) logging started Wed Mar 11 13:00:43 2020

Academic license - for non-commercial use only

Gurobi 8.1.1 (mac64, Python) logging started Wed Mar 11 13:03:02 2020

Academic license - for non-commercial use only

Gurobi 8.1.1 (mac64, Python) logging started Wed Mar 11 13:09:40 2020

Academic license - for non-commercial use only

Gurobi 8.1.1 (mac64, Python) logging started Wed Mar 11 13:10:15 2020

Academic license - for non-commercial use only

Gurobi 8.1.1 (mac64, Python) logging started Wed Mar 11 18:22:02 2020

Academic license - for non-commercial use only
